\ LP format - for model browsing. Use MPS format to capture full model detail.
Minimize
  6.6873471536293775e+06 x0_1_0 + 9.5583807053481285e+06 x0_2_0
   + 1.7253966867050573e+07 x0_3_0 + 4.0417508809507126e+06 x0_4_0
   + 4.4982528632511962e+06 x0_5_0 + 1.090009357780182e+07 x0_6_0
   + 2.7102797105712891e+06 x0_7_0 + 5.3465077238769531e+06 x0_8_0
   + 5.038867640625e+06 x0_9_0 + 1.3955096025279695e+07 x1_2_0
   + 9.3351907652729563e+06 x1_3_0 + 2.2670364853235534e+06 x1_4_0
   + 3.04939226448208e+06 x1_5_0 + 5.3968187298649019e+06 x1_6_0
   + 4.2438345534865595e+06 x1_7_0 + 2.7191072952575684e+06 x1_8_0
   + 5.2137525280761719e+06 x1_9_0 + 3.1654770647865608e+07 x2_3_0
   + 5.3698059096175777e+06 x2_4_0 + 1.0817054800107319e+07 x2_5_0
   + 9.5858590683563761e+06 x2_6_0 + 8.8940247920231018e+06 x2_7_0
   + 1.0300419141723633e+07 x2_8_0 + 6.3623646223419532e+06 x2_9_0
   + 9.7346299267167803e+06 x3_4_0 + 1.3144112021827029e+07 x3_5_0
   + 2.4764416678725246e+07 x3_6_0 + 2.4811035969726562e+07 x3_7_0
   + 1.2171426130661011e+07 x3_8_0 + 1.4753270754882812e+07 x3_9_0
   + 2.7308140143563901e+06 x4_5_0 + 3.4265658770377394e+06 x4_6_0
   + 1.687544224609375e+06 x4_7_0 + 1.7156179217529297e+06 x4_8_0
   + 1.6861255246582031e+06 x4_9_0 + 5.4455579608986489e+06 x5_6_0
   + 3.5624928375986903e+06 x5_7_0 + 982082.4027328491 x5_8_0
   + 3.4490260541447736e+06 x5_9_0 + 7.6724174826660156e+06 x6_7_0
   + 6.3671581606445313e+06 x6_8_0 + 7.5861390416259766e+06 x6_9_0
   + 5.1379092421875009e+06 x7_8_0 + 4.9637648913574219e+06 x7_9_0
   + 3.89611353125e+06 x8_9_0
Subject To
 0: x0_1_0 = 1
 1: x0_2_0 = 1
 2: x0_3_0 = 1
 3: x0_4_0 = 1
 4: x0_5_0 = 1
 5: x0_6_0 = 1
 6: x0_7_0 = 1
 7: x0_8_0 = 1
 8: x0_9_0 = 1
 9: x1_2_0 = 1
 10: x1_3_0 = 1
 11: x1_4_0 = 1
 12: x1_5_0 = 1
 13: x1_6_0 = 1
 14: x1_7_0 = 1
 15: x1_8_0 = 1
 16: x1_9_0 = 1
 17: x2_3_0 = 1
 18: x2_4_0 = 1
 19: x2_5_0 = 1
 20: x2_6_0 = 1
 21: x2_7_0 = 1
 22: x2_8_0 = 1
 23: x2_9_0 = 1
 24: x3_4_0 = 1
 25: x3_5_0 = 1
 26: x3_6_0 = 1
 27: x3_7_0 = 1
 28: x3_8_0 = 1
 29: x3_9_0 = 1
 30: x4_5_0 = 1
 31: x4_6_0 = 1
 32: x4_7_0 = 1
 33: x4_8_0 = 1
 34: x4_9_0 = 1
 35: x5_6_0 = 1
 36: x5_7_0 = 1
 37: x5_8_0 = 1
 38: x5_9_0 = 1
 39: x6_7_0 = 1
 40: x6_8_0 = 1
 41: x6_9_0 = 1
 42: x7_8_0 = 1
 43: x7_9_0 = 1
 44: x8_9_0 = 1
 45: z0 + z1 + z2 + z3 + z4 + z5 + z6 + z7 + z8 + z9 = 3
 46: - 36 z0 <= 0
 47: - 36 z1 <= 0
 48: - 36 z2 <= 0
 49: - 36 z3 <= 0
 50: - 36 z4 <= 0
 51: - 36 z5 <= 0
 52: - 36 z6 <= 0
 53: - 36 z7 + x0_1_0 <= 0
 54: - 36 z8 + x0_1_0 <= 0
 55: - 36 z9 + x0_1_0 <= 0
 56: - 36 z0 <= 0
 57: - 36 z1 <= 0
 58: - 36 z2 <= 0
 59: - 36 z3 <= 0
 60: - 36 z4 <= 0
 61: - 36 z5 <= 0
 62: - 36 z6 <= 0
 63: - 36 z7 + x0_2_0 <= 0
 64: - 36 z8 + x0_2_0 <= 0
 65: - 36 z9 + x0_2_0 <= 0
 66: - 36 z0 <= 0
 67: - 36 z1 <= 0
 68: - 36 z2 <= 0
 69: - 36 z3 <= 0
 70: - 36 z4 <= 0
 71: - 36 z5 <= 0
 72: - 36 z6 <= 0
 73: - 36 z7 + x0_3_0 <= 0
 74: - 36 z8 + x0_3_0 <= 0
 75: - 36 z9 + x0_3_0 <= 0
 76: - 36 z0 <= 0
 77: - 36 z1 <= 0
 78: - 36 z2 <= 0
 79: - 36 z3 <= 0
 80: - 36 z4 <= 0
 81: - 36 z5 <= 0
 82: - 36 z6 <= 0
 83: - 36 z7 + x0_4_0 <= 0
 84: - 36 z8 + x0_4_0 <= 0
 85: - 36 z9 + x0_4_0 <= 0
 86: - 36 z0 <= 0
 87: - 36 z1 <= 0
 88: - 36 z2 <= 0
 89: - 36 z3 <= 0
 90: - 36 z4 <= 0
 91: - 36 z5 <= 0
 92: - 36 z6 <= 0
 93: - 36 z7 + x0_5_0 <= 0
 94: - 36 z8 + x0_5_0 <= 0
 95: - 36 z9 + x0_5_0 <= 0
 96: - 36 z0 <= 0
 97: - 36 z1 <= 0
 98: - 36 z2 <= 0
 99: - 36 z3 <= 0
 100: - 36 z4 <= 0
 101: - 36 z5 <= 0
 102: - 36 z6 <= 0
 103: - 36 z7 + x0_6_0 <= 0
 104: - 36 z8 + x0_6_0 <= 0
 105: - 36 z9 + x0_6_0 <= 0
 106: - 36 z0 <= 0
 107: - 36 z1 <= 0
 108: - 36 z2 <= 0
 109: - 36 z3 <= 0
 110: - 36 z4 <= 0
 111: - 36 z5 <= 0
 112: - 36 z6 <= 0
 113: - 36 z7 + x0_7_0 <= 0
 114: - 36 z8 + x0_7_0 <= 0
 115: - 36 z9 + x0_7_0 <= 0
 116: - 36 z0 <= 0
 117: - 36 z1 <= 0
 118: - 36 z2 <= 0
 119: - 36 z3 <= 0
 120: - 36 z4 <= 0
 121: - 36 z5 <= 0
 122: - 36 z6 <= 0
 123: - 36 z7 + x0_8_0 <= 0
 124: - 36 z8 + x0_8_0 <= 0
 125: - 36 z9 + x0_8_0 <= 0
 126: - 36 z0 <= 0
 127: - 36 z1 <= 0
 128: - 36 z2 <= 0
 129: - 36 z3 <= 0
 130: - 36 z4 <= 0
 131: - 36 z5 <= 0
 132: - 36 z6 <= 0
 133: - 36 z7 + x0_9_0 <= 0
 134: - 36 z8 + x0_9_0 <= 0
 135: - 36 z9 + x0_9_0 <= 0
 136: - 36 z0 <= 0
 137: - 36 z1 <= 0
 138: - 36 z2 <= 0
 139: - 36 z3 <= 0
 140: - 36 z4 <= 0
 141: - 36 z5 <= 0
 142: - 36 z6 <= 0
 143: - 36 z7 + x1_2_0 <= 0
 144: - 36 z8 + x1_2_0 <= 0
 145: - 36 z9 + x1_2_0 <= 0
 146: - 36 z0 <= 0
 147: - 36 z1 <= 0
 148: - 36 z2 <= 0
 149: - 36 z3 <= 0
 150: - 36 z4 <= 0
 151: - 36 z5 <= 0
 152: - 36 z6 <= 0
 153: - 36 z7 + x1_3_0 <= 0
 154: - 36 z8 + x1_3_0 <= 0
 155: - 36 z9 + x1_3_0 <= 0
 156: - 36 z0 <= 0
 157: - 36 z1 <= 0
 158: - 36 z2 <= 0
 159: - 36 z3 <= 0
 160: - 36 z4 <= 0
 161: - 36 z5 <= 0
 162: - 36 z6 <= 0
 163: - 36 z7 + x1_4_0 <= 0
 164: - 36 z8 + x1_4_0 <= 0
 165: - 36 z9 + x1_4_0 <= 0
 166: - 36 z0 <= 0
 167: - 36 z1 <= 0
 168: - 36 z2 <= 0
 169: - 36 z3 <= 0
 170: - 36 z4 <= 0
 171: - 36 z5 <= 0
 172: - 36 z6 <= 0
 173: - 36 z7 + x1_5_0 <= 0
 174: - 36 z8 + x1_5_0 <= 0
 175: - 36 z9 + x1_5_0 <= 0
 176: - 36 z0 <= 0
 177: - 36 z1 <= 0
 178: - 36 z2 <= 0
 179: - 36 z3 <= 0
 180: - 36 z4 <= 0
 181: - 36 z5 <= 0
 182: - 36 z6 <= 0
 183: - 36 z7 + x1_6_0 <= 0
 184: - 36 z8 + x1_6_0 <= 0
 185: - 36 z9 + x1_6_0 <= 0
 186: - 36 z0 <= 0
 187: - 36 z1 <= 0
 188: - 36 z2 <= 0
 189: - 36 z3 <= 0
 190: - 36 z4 <= 0
 191: - 36 z5 <= 0
 192: - 36 z6 <= 0
 193: - 36 z7 + x1_7_0 <= 0
 194: - 36 z8 + x1_7_0 <= 0
 195: - 36 z9 + x1_7_0 <= 0
 196: - 36 z0 <= 0
 197: - 36 z1 <= 0
 198: - 36 z2 <= 0
 199: - 36 z3 <= 0
 200: - 36 z4 <= 0
 201: - 36 z5 <= 0
 202: - 36 z6 <= 0
 203: - 36 z7 + x1_8_0 <= 0
 204: - 36 z8 + x1_8_0 <= 0
 205: - 36 z9 + x1_8_0 <= 0
 206: - 36 z0 <= 0
 207: - 36 z1 <= 0
 208: - 36 z2 <= 0
 209: - 36 z3 <= 0
 210: - 36 z4 <= 0
 211: - 36 z5 <= 0
 212: - 36 z6 <= 0
 213: - 36 z7 + x1_9_0 <= 0
 214: - 36 z8 + x1_9_0 <= 0
 215: - 36 z9 + x1_9_0 <= 0
 216: - 36 z0 <= 0
 217: - 36 z1 <= 0
 218: - 36 z2 <= 0
 219: - 36 z3 <= 0
 220: - 36 z4 <= 0
 221: - 36 z5 <= 0
 222: - 36 z6 <= 0
 223: - 36 z7 + x2_3_0 <= 0
 224: - 36 z8 + x2_3_0 <= 0
 225: - 36 z9 + x2_3_0 <= 0
 226: - 36 z0 <= 0
 227: - 36 z1 <= 0
 228: - 36 z2 <= 0
 229: - 36 z3 <= 0
 230: - 36 z4 <= 0
 231: - 36 z5 <= 0
 232: - 36 z6 <= 0
 233: - 36 z7 + x2_4_0 <= 0
 234: - 36 z8 + x2_4_0 <= 0
 235: - 36 z9 + x2_4_0 <= 0
 236: - 36 z0 <= 0
 237: - 36 z1 <= 0
 238: - 36 z2 <= 0
 239: - 36 z3 <= 0
 240: - 36 z4 <= 0
 241: - 36 z5 <= 0
 242: - 36 z6 <= 0
 243: - 36 z7 + x2_5_0 <= 0
 244: - 36 z8 + x2_5_0 <= 0
 245: - 36 z9 + x2_5_0 <= 0
 246: - 36 z0 <= 0
 247: - 36 z1 <= 0
 248: - 36 z2 <= 0
 249: - 36 z3 <= 0
 250: - 36 z4 <= 0
 251: - 36 z5 <= 0
 252: - 36 z6 <= 0
 253: - 36 z7 + x2_6_0 <= 0
 254: - 36 z8 + x2_6_0 <= 0
 255: - 36 z9 + x2_6_0 <= 0
 256: - 36 z0 <= 0
 257: - 36 z1 <= 0
 258: - 36 z2 <= 0
 259: - 36 z3 <= 0
 260: - 36 z4 <= 0
 261: - 36 z5 <= 0
 262: - 36 z6 <= 0
 263: - 36 z7 + x2_7_0 <= 0
 264: - 36 z8 + x2_7_0 <= 0
 265: - 36 z9 + x2_7_0 <= 0
 266: - 36 z0 <= 0
 267: - 36 z1 <= 0
 268: - 36 z2 <= 0
 269: - 36 z3 <= 0
 270: - 36 z4 <= 0
 271: - 36 z5 <= 0
 272: - 36 z6 <= 0
 273: - 36 z7 + x2_8_0 <= 0
 274: - 36 z8 + x2_8_0 <= 0
 275: - 36 z9 + x2_8_0 <= 0
 276: - 36 z0 <= 0
 277: - 36 z1 <= 0
 278: - 36 z2 <= 0
 279: - 36 z3 <= 0
 280: - 36 z4 <= 0
 281: - 36 z5 <= 0
 282: - 36 z6 <= 0
 283: - 36 z7 + x2_9_0 <= 0
 284: - 36 z8 + x2_9_0 <= 0
 285: - 36 z9 + x2_9_0 <= 0
 286: - 36 z0 <= 0
 287: - 36 z1 <= 0
 288: - 36 z2 <= 0
 289: - 36 z3 <= 0
 290: - 36 z4 <= 0
 291: - 36 z5 <= 0
 292: - 36 z6 <= 0
 293: - 36 z7 + x3_4_0 <= 0
 294: - 36 z8 + x3_4_0 <= 0
 295: - 36 z9 + x3_4_0 <= 0
 296: - 36 z0 <= 0
 297: - 36 z1 <= 0
 298: - 36 z2 <= 0
 299: - 36 z3 <= 0
 300: - 36 z4 <= 0
 301: - 36 z5 <= 0
 302: - 36 z6 <= 0
 303: - 36 z7 + x3_5_0 <= 0
 304: - 36 z8 + x3_5_0 <= 0
 305: - 36 z9 + x3_5_0 <= 0
 306: - 36 z0 <= 0
 307: - 36 z1 <= 0
 308: - 36 z2 <= 0
 309: - 36 z3 <= 0
 310: - 36 z4 <= 0
 311: - 36 z5 <= 0
 312: - 36 z6 <= 0
 313: - 36 z7 + x3_6_0 <= 0
 314: - 36 z8 + x3_6_0 <= 0
 315: - 36 z9 + x3_6_0 <= 0
 316: - 36 z0 <= 0
 317: - 36 z1 <= 0
 318: - 36 z2 <= 0
 319: - 36 z3 <= 0
 320: - 36 z4 <= 0
 321: - 36 z5 <= 0
 322: - 36 z6 <= 0
 323: - 36 z7 + x3_7_0 <= 0
 324: - 36 z8 + x3_7_0 <= 0
 325: - 36 z9 + x3_7_0 <= 0
 326: - 36 z0 <= 0
 327: - 36 z1 <= 0
 328: - 36 z2 <= 0
 329: - 36 z3 <= 0
 330: - 36 z4 <= 0
 331: - 36 z5 <= 0
 332: - 36 z6 <= 0
 333: - 36 z7 + x3_8_0 <= 0
 334: - 36 z8 + x3_8_0 <= 0
 335: - 36 z9 + x3_8_0 <= 0
 336: - 36 z0 <= 0
 337: - 36 z1 <= 0
 338: - 36 z2 <= 0
 339: - 36 z3 <= 0
 340: - 36 z4 <= 0
 341: - 36 z5 <= 0
 342: - 36 z6 <= 0
 343: - 36 z7 + x3_9_0 <= 0
 344: - 36 z8 + x3_9_0 <= 0
 345: - 36 z9 + x3_9_0 <= 0
 346: - 36 z0 <= 0
 347: - 36 z1 <= 0
 348: - 36 z2 <= 0
 349: - 36 z3 <= 0
 350: - 36 z4 <= 0
 351: - 36 z5 <= 0
 352: - 36 z6 <= 0
 353: - 36 z7 + x4_5_0 <= 0
 354: - 36 z8 + x4_5_0 <= 0
 355: - 36 z9 + x4_5_0 <= 0
 356: - 36 z0 <= 0
 357: - 36 z1 <= 0
 358: - 36 z2 <= 0
 359: - 36 z3 <= 0
 360: - 36 z4 <= 0
 361: - 36 z5 <= 0
 362: - 36 z6 <= 0
 363: - 36 z7 + x4_6_0 <= 0
 364: - 36 z8 + x4_6_0 <= 0
 365: - 36 z9 + x4_6_0 <= 0
 366: - 36 z0 <= 0
 367: - 36 z1 <= 0
 368: - 36 z2 <= 0
 369: - 36 z3 <= 0
 370: - 36 z4 <= 0
 371: - 36 z5 <= 0
 372: - 36 z6 <= 0
 373: - 36 z7 + x4_7_0 <= 0
 374: - 36 z8 + x4_7_0 <= 0
 375: - 36 z9 + x4_7_0 <= 0
 376: - 36 z0 <= 0
 377: - 36 z1 <= 0
 378: - 36 z2 <= 0
 379: - 36 z3 <= 0
 380: - 36 z4 <= 0
 381: - 36 z5 <= 0
 382: - 36 z6 <= 0
 383: - 36 z7 + x4_8_0 <= 0
 384: - 36 z8 + x4_8_0 <= 0
 385: - 36 z9 + x4_8_0 <= 0
 386: - 36 z0 <= 0
 387: - 36 z1 <= 0
 388: - 36 z2 <= 0
 389: - 36 z3 <= 0
 390: - 36 z4 <= 0
 391: - 36 z5 <= 0
 392: - 36 z6 <= 0
 393: - 36 z7 + x4_9_0 <= 0
 394: - 36 z8 + x4_9_0 <= 0
 395: - 36 z9 + x4_9_0 <= 0
 396: - 36 z0 <= 0
 397: - 36 z1 <= 0
 398: - 36 z2 <= 0
 399: - 36 z3 <= 0
 400: - 36 z4 <= 0
 401: - 36 z5 <= 0
 402: - 36 z6 <= 0
 403: - 36 z7 + x5_6_0 <= 0
 404: - 36 z8 + x5_6_0 <= 0
 405: - 36 z9 + x5_6_0 <= 0
 406: - 36 z0 <= 0
 407: - 36 z1 <= 0
 408: - 36 z2 <= 0
 409: - 36 z3 <= 0
 410: - 36 z4 <= 0
 411: - 36 z5 <= 0
 412: - 36 z6 <= 0
 413: - 36 z7 + x5_7_0 <= 0
 414: - 36 z8 + x5_7_0 <= 0
 415: - 36 z9 + x5_7_0 <= 0
 416: - 36 z0 <= 0
 417: - 36 z1 <= 0
 418: - 36 z2 <= 0
 419: - 36 z3 <= 0
 420: - 36 z4 <= 0
 421: - 36 z5 <= 0
 422: - 36 z6 <= 0
 423: - 36 z7 + x5_8_0 <= 0
 424: - 36 z8 + x5_8_0 <= 0
 425: - 36 z9 + x5_8_0 <= 0
 426: - 36 z0 <= 0
 427: - 36 z1 <= 0
 428: - 36 z2 <= 0
 429: - 36 z3 <= 0
 430: - 36 z4 <= 0
 431: - 36 z5 <= 0
 432: - 36 z6 <= 0
 433: - 36 z7 + x5_9_0 <= 0
 434: - 36 z8 + x5_9_0 <= 0
 435: - 36 z9 + x5_9_0 <= 0
 436: - 36 z0 <= 0
 437: - 36 z1 <= 0
 438: - 36 z2 <= 0
 439: - 36 z3 <= 0
 440: - 36 z4 <= 0
 441: - 36 z5 <= 0
 442: - 36 z6 <= 0
 443: - 36 z7 + x6_7_0 <= 0
 444: - 36 z8 + x6_7_0 <= 0
 445: - 36 z9 + x6_7_0 <= 0
 446: - 36 z0 <= 0
 447: - 36 z1 <= 0
 448: - 36 z2 <= 0
 449: - 36 z3 <= 0
 450: - 36 z4 <= 0
 451: - 36 z5 <= 0
 452: - 36 z6 <= 0
 453: - 36 z7 + x6_8_0 <= 0
 454: - 36 z8 + x6_8_0 <= 0
 455: - 36 z9 + x6_8_0 <= 0
 456: - 36 z0 <= 0
 457: - 36 z1 <= 0
 458: - 36 z2 <= 0
 459: - 36 z3 <= 0
 460: - 36 z4 <= 0
 461: - 36 z5 <= 0
 462: - 36 z6 <= 0
 463: - 36 z7 + x6_9_0 <= 0
 464: - 36 z8 + x6_9_0 <= 0
 465: - 36 z9 + x6_9_0 <= 0
 466: - 36 z0 <= 0
 467: - 36 z1 <= 0
 468: - 36 z2 <= 0
 469: - 36 z3 <= 0
 470: - 36 z4 <= 0
 471: - 36 z5 <= 0
 472: - 36 z6 <= 0
 473: - 36 z7 + x7_8_0 <= 0
 474: - 36 z8 + x7_8_0 <= 0
 475: - 36 z9 + x7_8_0 <= 0
 476: - 36 z0 <= 0
 477: - 36 z1 <= 0
 478: - 36 z2 <= 0
 479: - 36 z3 <= 0
 480: - 36 z4 <= 0
 481: - 36 z5 <= 0
 482: - 36 z6 <= 0
 483: - 36 z7 + x7_9_0 <= 0
 484: - 36 z8 + x7_9_0 <= 0
 485: - 36 z9 + x7_9_0 <= 0
 486: - 36 z0 <= 0
 487: - 36 z1 <= 0
 488: - 36 z2 <= 0
 489: - 36 z3 <= 0
 490: - 36 z4 <= 0
 491: - 36 z5 <= 0
 492: - 36 z6 <= 0
 493: - 36 z7 + x8_9_0 <= 0
 494: - 36 z8 + x8_9_0 <= 0
 495: - 36 z9 + x8_9_0 <= 0
 496: z7 = 1
 497: z8 = 1
 498: z9 = 1
Bounds
 z0 <= 1
 z1 <= 1
 z2 <= 1
 z3 <= 1
 z4 <= 1
 z5 <= 1
 z6 <= 1
 z7 <= 1
 z8 <= 1
 z9 <= 1
 x0_1_0 <= 1
 x0_2_0 <= 1
 x0_3_0 <= 1
 x0_4_0 <= 1
 x0_5_0 <= 1
 x0_6_0 <= 1
 x0_7_0 <= 1
 x0_8_0 <= 1
 x0_9_0 <= 1
 x1_2_0 <= 1
 x1_3_0 <= 1
 x1_4_0 <= 1
 x1_5_0 <= 1
 x1_6_0 <= 1
 x1_7_0 <= 1
 x1_8_0 <= 1
 x1_9_0 <= 1
 x2_3_0 <= 1
 x2_4_0 <= 1
 x2_5_0 <= 1
 x2_6_0 <= 1
 x2_7_0 <= 1
 x2_8_0 <= 1
 x2_9_0 <= 1
 x3_4_0 <= 1
 x3_5_0 <= 1
 x3_6_0 <= 1
 x3_7_0 <= 1
 x3_8_0 <= 1
 x3_9_0 <= 1
 x4_5_0 <= 1
 x4_6_0 <= 1
 x4_7_0 <= 1
 x4_8_0 <= 1
 x4_9_0 <= 1
 x5_6_0 <= 1
 x5_7_0 <= 1
 x5_8_0 <= 1
 x5_9_0 <= 1
 x6_7_0 <= 1
 x6_8_0 <= 1
 x6_9_0 <= 1
 x7_8_0 <= 1
 x7_9_0 <= 1
 x8_9_0 <= 1
End
